NAME : xva2993
COMMENT : Bonn VLSI data set with 2993 points
COMMENT : Uni Bonn, Research Institute for Discrete Math
COMMENT : Contributed by Andre Rohe
TYPE : TSP
DIMENSION : 2993
EDGE_WEIGHT_TYPE : EUC_2D
NODE_COORD_SECTION
1 0 106
2 0 113
3 0 120
4 0 123
5 0 124
6 0 125
7 0 127
8 0 129
9 0 132
10 0 134
11 0 137
12 0 141
13 0 148
14 0 15
15 0 155
16 0 162
17 0 169
18 0 176
19 0 183
20 0 190
21 0 197
22 0 204
23 0 211
24 0 218
25 0 22
26 0 224
27 0 225
28 0 227
29 0 228
30 0 232
31 0 234
32 0 235
33 0 236
34 0 239
35 0 240
36 0 241
37 0 244
38 0 246
39 0 29
40 0 36
41 0 41
42 0 43
43 0 50
44 0 57
45 0 64
46 0 71
47 0 78
48 0 8
49 0 85
50 0 92
51 0 99
52 2 101
53 2 103
54 2 104
55 2 105
56 2 107
57 2 109
58 2 11
59 2 111
60 2 112
61 2 113
62 2 115
63 2 117
64 2 125
65 2 128
66 2 129
67 2 130
68 2 132
69 2 134
70 2 135
71 2 145
72 2 149
73 2 15
74 2 150
75 2 153
76 2 154
77 2 157
78 2 163
79 2 165
80 2 166
81 2 168
82 2 169
83 2 17
84 2 172
85 2 175
86 2 178
87 2 179
88 2 18
89 2 182
90 2 188
91 2 19
92 2 190
93 2 191
94 2 21
95 2 214
96 2 215
97 2 216
98 2 217
99 2 218
100 2 219
101 2 221
102 2 227
103 2 23
104 2 24
105 2 240
106 2 242
107 2 25
108 2 27
109 2 29
110 2 30
111 2 31
112 2 33
113 2 35
114 2 36
115 2 38
116 2 40
117 2 41
118 2 42
119 2 44
120 2 46
121 2 48
122 2 49
123 2 50
124 2 57
125 2 59
126 2 60
127 2 61
128 2 63
129 2 65
130 2 67
131 2 68
132 2 69
133 2 71
134 2 73
135 2 74
136 2 75
137 2 77
138 2 79
139 2 81
140 2 82
141 2 84
142 2 86
143 2 87
144 2 88
145 2 9
146 2 93
147 2 95
148 2 96
149 2 97
150 3 0
151 3 222
152 5 108
153 5 116
154 5 120
155 5 124
156 5 126
157 5 133
158 5 139
159 5 143
160 5 146
161 5 235
162 5 37
163 5 45
164 5 55
165 5 64
166 5 72
167 5 78
168 5 83
169 5 92
170 8 33
171 8 79
172 9 103
173 9 111
174 9 117
175 9 148
176 9 15
177 9 171
178 9 23
179 9 27
180 9 33
181 9 38
182 9 46
183 9 57
184 9 65
185 9 79
186 9 84
187 9 95
188 10 107
189 10 115
190 10 117
191 10 125
192 10 132
193 10 145
194 10 34
195 10 36
196 10 44
197 10 63
198 10 71
199 10 77
200 10 80
201 10 82
202 11 102
203 11 107
204 11 110
205 11 115
206 11 117
207 11 125
208 11 132
209 11 137
210 11 145
211 11 148
212 11 17
213 11 171
214 11 193
215 11 22
216 11 236
217 11 29
218 11 33
219 11 36
220 11 40
221 11 44
222 11 48
223 11 5
224 11 59
225 11 63
226 11 67
227 11 71
228 11 77
229 11 79
230 11 82
231 11 86
232 11 90
233 11 94
234 12 117
235 12 121
236 12 232
237 12 52
238 15 105
239 15 108
240 15 113
241 15 116
242 15 120
243 15 124
244 15 126
245 15 133
246 15 146
247 15 235
248 15 25
249 15 35
250 15 37
251 15 45
252 15 55
253 15 64
254 15 72
255 15 78
256 15 81
257 15 83
258 15 97
259 17 128
260 17 135
261 17 151
262 17 154
263 17 159
264 17 164
265 17 169
266 17 175
267 17 179
268 17 185
269 17 189
270 17 214
271 17 216
272 17 217
273 17 223
274 17 227
275 17 74
276 17 75
277 18 118
278 18 119
279 18 129
280 18 152
281 18 160
282 18 165
283 18 177
284 18 186
285 18 190
286 18 213
287 18 215
288 18 224
289 18 228
290 25 100
291 25 102
292 25 104
293 25 107
294 25 109
295 25 111
296 25 112
297 25 113
298 25 115
299 25 117
300 25 118
301 25 119
302 25 121
303 25 123
304 25 124
305 25 133
306 25 135
307 25 14
308 25 142
309 25 145
310 25 148
311 25 149
312 25 152
313 25 153
314 25 156
315 25 16
316 25 162
317 25 164
318 25 165
319 25 167
320 25 168
321 25 17
322 25 177
323 25 178
324 25 181
325 25 187
326 25 189
327 25 190
328 25 193
329 25 196
330 25 199
331 25 20
332 25 200
333 25 203
334 25 209
335 25 211
336 25 212
337 25 214
338 25 215
339 25 218
340 25 22
341 25 220
342 25 224
343 25 23
344 25 24
345 25 240
346 25 242
347 25 26
348 25 28
349 25 29
350 25 31
351 25 33
352 25 35
353 25 37
354 25 38
355 25 39
356 25 41
357 25 43
358 25 44
359 25 45
360 25 51
361 25 54
362 25 56
363 25 57
364 25 58
365 25 60
366 25 62
367 25 63
368 25 64
369 25 68
370 25 70
371 25 71
372 25 72
373 25 74
374 25 76
375 25 77
376 25 78
377 25 85
378 25 87
379 25 88
380 25 89
381 25 91
382 25 94
383 25 96
384 25 97
385 25 98
386 28 101
387 28 108
388 28 11
389 28 116
390 28 122
391 28 129
392 28 134
393 28 139
394 28 143
395 28 146
396 28 18
397 28 21
398 28 218
399 28 220
400 28 222
401 28 224
402 28 226
403 28 230
404 28 234
405 28 30
406 28 32
407 28 34
408 28 50
409 28 52
410 28 7
411 28 83
412 28 92
413 31 102
414 31 14
415 31 26
416 32 0
417 32 102
418 32 109
419 32 132
420 32 14
421 32 170
422 32 192
423 32 227
424 32 230
425 32 234
426 32 26
427 32 35
428 32 41
429 32 54
430 32 60
431 32 68
432 32 74
433 32 85
434 32 94
435 33 100
436 33 103
437 33 107
438 33 115
439 33 121
440 33 132
441 33 142
442 33 145
443 33 15
444 33 17
445 33 20
446 33 217
447 33 223
448 33 228
449 33 232
450 33 27
451 33 29
452 33 31
453 33 33
454 33 51
455 33 91
456 34 100
457 34 102
458 34 107
459 34 111
460 34 115
461 34 121
462 34 132
463 34 137
464 34 14
465 34 142
466 34 145
467 34 147
468 34 17
469 34 170
470 34 192
471 34 20
472 34 217
473 34 223
474 34 236
475 34 26
476 34 29
477 34 31
478 34 33
479 34 37
480 34 43
481 34 5
482 34 51
483 34 56
484 34 62
485 34 70
486 34 76
487 34 87
488 34 91
489 34 96
490 35 126
491 35 47
492 35 80
493 38 101
494 38 104
495 38 108
496 38 116
497 38 122
498 38 129
499 38 143
500 38 146
501 38 16
502 38 18
503 38 21
504 38 218
505 38 220
506 38 222
507 38 224
508 38 226
509 38 229
510 38 233
511 38 28
512 38 30
513 38 32
514 38 34
515 38 50
516 38 52
517 38 83
518 38 92
519 40 118
520 40 119
521 40 124
522 40 148
523 40 149
524 40 153
525 40 158
526 40 163
527 40 168
528 40 178
529 40 184
530 40 188
531 40 196
532 40 200
533 40 206
534 40 210
535 40 215
536 40 23
537 40 24
538 41 151
539 41 157
540 41 164
541 41 176
542 41 185
543 41 189
544 41 198
545 41 207
546 41 211
547 48 101
548 48 103
549 48 104
550 48 105
551 48 13
552 48 136
553 48 144
554 48 149
555 48 15
556 48 160
557 48 162
558 48 165
559 48 17
560 48 18
561 48 182
562 48 183
563 48 184
564 48 186
565 48 187
566 48 188
567 48 19
568 48 190
569 48 192
570 48 194
571 48 196
572 48 198
573 48 200
574 48 202
575 48 204
576 48 206
577 48 208
578 48 21
579 48 210
580 48 212
581 48 214
582 48 216
583 48 218
584 48 220
585 48 223
586 48 225
587 48 227
588 48 229
589 48 23
590 48 235
591 48 242
592 48 25
593 48 29
594 48 32
595 48 34
596 48 35
597 48 36
598 48 38
599 48 40
600 48 41
601 48 42
602 48 46
603 48 48
604 48 49
605 48 50
606 48 52
607 48 54
608 48 56
609 48 57
610 48 58
611 48 65
612 48 67
613 48 68
614 48 69
615 48 71
616 48 73
617 48 75
618 48 76
619 48 77
620 48 79
621 48 81
622 48 85
623 48 87
624 48 88
625 48 89
626 48 91
627 48 93
628 48 95
629 48 96
630 48 97
631 48 99
632 51 100
633 51 11
634 51 110
635 51 116
636 51 119
637 51 126
638 51 134
639 51 137
640 51 14
641 51 141
642 51 147
643 51 160
644 51 162
645 51 177
646 51 181
647 51 192
648 51 195
649 51 199
650 51 203
651 51 207
652 51 211
653 51 215
654 51 219
655 51 22
656 51 224
657 51 228
658 51 232
659 51 24
660 51 28
661 51 30
662 51 33
663 51 53
664 51 63
665 51 7
666 51 72
667 51 74
668 51 80
669 51 84
670 51 92
671 54 122
672 54 128
673 55 103
674 55 135
675 55 17
676 55 190
677 55 193
678 55 222
679 55 25
680 55 40
681 55 48
682 55 54
683 55 67
684 55 81
685 55 87
686 55 95
687 56 13
688 56 148
689 56 159
690 56 164
691 56 190
692 56 193
693 56 21
694 56 222
695 56 23
696 56 25
697 56 29
698 56 32
699 56 52
700 56 71
701 56 73
702 56 79
703 56 81
704 56 91
705 56 99
706 57 102
707 57 117
708 57 13
709 57 135
710 57 140
711 57 146
712 57 148
713 57 159
714 57 16
715 57 164
716 57 175
717 57 190
718 57 193
719 57 21
720 57 222
721 57 23
722 57 231
723 57 25
724 57 29
725 57 32
726 57 39
727 57 47
728 57 5
729 57 52
730 57 56
731 57 66
732 57 71
733 57 73
734 57 79
735 57 81
736 57 86
737 57 91
738 57 94
739 57 99
740 58 107
741 58 122
742 58 178
743 58 25
744 58 60
745 58 8
746 58 81
747 61 100
748 61 105
749 61 11
750 61 110
751 61 116
752 61 14
753 61 141
754 61 147
755 61 160
756 61 162
757 61 181
758 61 19
759 61 22
760 61 232
761 61 24
762 61 249
763 61 28
764 61 30
765 61 33
766 61 42
767 61 50
768 61 53
769 61 63
770 61 69
771 61 72
772 61 74
773 61 80
774 61 84
775 61 89
776 61 92
777 61 97
778 63 144
779 63 183
780 63 184
781 63 187
782 63 188
783 63 235
784 63 35
785 63 36
786 63 76
787 63 77
788 64 126
789 64 133
790 64 242
791 64 26
792 64 27
793 64 82
794 64 83
795 71 100
796 71 103
797 71 105
798 71 108
799 71 11
800 71 110
801 71 113
802 71 120
803 71 122
804 71 125
805 71 13
806 71 133
807 71 134
808 71 135
809 71 141
810 71 143
811 71 153
812 71 155
813 71 157
814 71 159
815 71 16
816 71 161
817 71 163
818 71 165
819 71 167
820 71 17
821 71 171
822 71 173
823 71 174
824 71 176
825 71 177
826 71 178
827 71 18
828 71 180
829 71 182
830 71 184
831 71 186
832 71 187
833 71 189
834 71 190
835 71 191
836 71 192
837 71 194
838 71 195
839 71 196
840 71 198
841 71 20
842 71 200
843 71 204
844 71 206
845 71 209
846 71 211
847 71 213
848 71 215
849 71 218
850 71 22
851 71 220
852 71 222
853 71 224
854 71 226
855 71 228
856 71 241
857 71 243
858 71 25
859 71 27
860 71 31
861 71 34
862 71 38
863 71 48
864 71 50
865 71 56
866 71 61
867 71 70
868 71 72
869 71 73
870 71 74
871 71 76
872 71 78
873 71 80
874 71 84
875 71 86
876 71 89
877 71 9
878 71 90
879 71 91
880 71 93
881 71 96
882 74 101
883 74 103
884 74 105
885 74 108
886 74 110
887 74 114
888 74 118
889 74 120
890 74 122
891 74 126
892 74 130
893 74 139
894 74 14
895 74 143
896 74 147
897 74 151
898 74 155
899 74 158
900 74 162
901 74 166
902 74 173
903 74 175
904 74 182
905 74 186
906 74 189
907 74 200
908 74 205
909 74 21
910 74 210
911 74 214
912 74 219
913 74 223
914 74 227
915 74 23
916 74 232
917 74 236
918 74 26
919 74 30
920 74 32
921 74 35
922 74 39
923 74 42
924 74 46
925 74 48
926 74 50
927 74 53
928 74 57
929 74 62
930 74 67
931 74 77
932 74 79
933 74 83
934 74 85
935 74 87
936 74 94
937 77 54
938 78 112
939 78 141
940 78 144
941 78 147
942 78 151
943 78 153
944 78 156
945 78 171
946 78 180
947 78 184
948 78 187
949 78 198
950 78 203
951 78 208
952 78 217
953 78 27
954 78 54
955 78 72
956 78 80
957 79 100
958 79 102
959 79 107
960 79 119
961 79 125
962 79 13
963 79 141
964 79 145
965 79 149
966 79 153
967 79 156
968 79 171
969 79 174
970 79 180
971 79 184
972 79 187
973 79 198
974 79 20
975 79 203
976 79 208
977 79 217
978 79 22
979 79 25
980 79 27
981 79 31
982 79 34
983 79 38
984 79 47
985 79 76
986 79 78
987 79 80
988 79 84
989 79 86
990 79 93
991 80 100
992 80 102
993 80 107
994 80 112
995 80 117
996 80 119
997 80 125
998 80 13
999 80 137
1000 80 141
1001 80 153
1002 80 156
1003 80 171
1004 80 174
1005 80 180
1006 80 184
1007 80 187
1008 80 198
1009 80 20
1010 80 203
1011 80 208
1012 80 217
1013 80 22
1014 80 230
1015 80 237
1016 80 25
1017 80 27
1018 80 31
1019 80 34
1020 80 38
1021 80 40
1022 80 47
1023 80 5
1024 80 52
1025 80 65
1026 80 71
1027 80 76
1028 80 78
1029 80 80
1030 80 84
1031 80 86
1032 80 93
1033 81 127
1034 81 233
1035 81 27
1036 81 43
1037 81 80
1038 84 101
1039 84 103
1040 84 105
1041 84 108
1042 84 110
1043 84 118
1044 84 120
1045 84 122
1046 84 126
1047 84 130
1048 84 14
1049 84 146
1050 84 150
1051 84 175
1052 84 21
1053 84 23
1054 84 236
1055 84 26
1056 84 30
1057 84 32
1058 84 35
1059 84 39
1060 84 46
1061 84 48
1062 84 50
1063 84 53
1064 84 57
1065 84 62
1066 84 74
1067 84 77
1068 84 79
1069 84 83
1070 84 85
1071 84 87
1072 84 94
1073 86 133
1074 86 16
1075 86 177
1076 86 178
1077 86 191
1078 86 192
1079 86 195
1080 86 196
1081 86 89
1082 86 96
1083 87 134
1084 87 17
1085 87 28
1086 87 29
1087 87 81
1088 87 82
1089 87 90
1090 94 100
1091 94 105
1092 94 110
1093 94 111
1094 94 112
1095 94 114
1096 94 116
1097 94 119
1098 94 121
1099 94 125
1100 94 126
1101 94 13
1102 94 130
1103 94 131
1104 94 135
1105 94 136
1106 94 14
1107 94 141
1108 94 15
1109 94 153
1110 94 155
1111 94 157
1112 94 159
1113 94 160
1114 94 161
1115 94 162
1116 94 164
1117 94 165
1118 94 166
1119 94 168
1120 94 17
1121 94 170
1122 94 171
1123 94 173
1124 94 176
1125 94 177
1126 94 178
1127 94 181
1128 94 183
1129 94 186
1130 94 188
1131 94 190
1132 94 192
1133 94 194
1134 94 196
1135 94 198
1136 94 200
1137 94 202
1138 94 204
1139 94 206
1140 94 208
1141 94 210
1142 94 212
1143 94 214
1144 94 217
1145 94 219
1146 94 221
1147 94 223
1148 94 225
1149 94 227
1150 94 240
1151 94 242
1152 94 27
1153 94 36
1154 94 38
1155 94 40
1156 94 43
1157 94 44
1158 94 45
1159 94 48
1160 94 50
1161 94 59
1162 94 62
1163 94 70
1164 94 72
1165 94 74
1166 94 75
1167 94 77
1168 94 79
1169 94 80
1170 94 81
1171 94 83
1172 94 85
1173 94 86
1174 94 87
1175 94 9
1176 94 94
1177 94 96
1178 94 98
1179 95 128
1180 97 103
1181 97 106
1182 97 115
1183 97 117
1184 97 120
1185 97 159
1186 97 170
1187 97 173
1188 97 18
1189 97 182
1190 97 186
1191 97 189
1192 97 193
1193 97 197
1194 97 201
1195 97 205
1196 97 209
1197 97 213
1198 97 218
1199 97 22
1200 97 222
1201 97 226
1202 97 231
1203 97 235
1204 97 28
1205 97 32
1206 97 37
1207 97 41
1208 97 48
1209 97 50
1210 97 53
1211 97 56
1212 97 6
1213 97 60
1214 97 63
1215 97 67
1216 97 69
1217 97 71
1218 97 76
1219 97 84
1220 97 91
1221 97 95
1222 97 99
1223 100 72
1224 101 100
1225 101 118
1226 101 157
1227 101 168
1228 101 171
1229 101 180
1230 101 187
1231 101 19
1232 101 216
1233 101 35
1234 101 72
1235 101 77
1236 101 93
1237 102 100
1238 102 105
1239 102 114
1240 102 116
1241 102 118
1242 102 143
1243 102 157
1244 102 168
1245 102 17
1246 102 171
1247 102 180
1248 102 187
1249 102 19
1250 102 216
1251 102 27
1252 102 35
1253 102 40
1254 102 47
1255 102 59
1256 102 62
1257 102 70
1258 102 73
1259 102 75
1260 102 83
1261 102 93
1262 102 98
1263 103 100
1264 103 105
1265 103 114
1266 103 116
1267 103 118
1268 103 149
1269 103 157
1270 103 168
1271 103 17
1272 103 171
1273 103 180
1274 103 187
1275 103 19
1276 103 216
1277 103 229
1278 103 236
1279 103 27
1280 103 35
1281 103 40
1282 103 47
1283 103 5
1284 103 52
1285 103 54
1286 103 59
1287 103 62
1288 103 68
1289 103 70
1290 103 72
1291 103 75
1292 103 79
1293 103 83
1294 103 89
1295 103 93
1296 103 98
1297 104 100
1298 104 19
1299 104 232
1300 104 29
1301 104 64
1302 107 103
1303 107 106
1304 107 115
1305 107 117
1306 107 18
1307 107 22
1308 107 235
1309 107 28
1310 107 32
1311 107 41
1312 107 48
1313 107 50
1314 107 53
1315 107 6
1316 107 60
1317 107 63
1318 107 67
1319 107 69
1320 107 71
1321 107 74
1322 107 76
1323 107 84
1324 107 99
1325 109 110
1326 109 125
1327 109 13
1328 109 131
1329 109 141
1330 109 161
1331 109 162
1332 109 165
1333 109 166
1334 109 177
1335 109 178
1336 109 43
1337 109 86
1338 109 87
1339 109 9
1340 110 101
1341 110 102
1342 110 111
1343 110 129
1344 110 135
1345 110 14
1346 110 20
1347 110 21
1348 110 23
1349 110 24
1350 110 44
1351 117 105
1352 117 109
1353 117 111
1354 117 113
1355 117 115
1356 117 117
1357 117 119
1358 117 120
1359 117 123
1360 117 13
1361 117 130
1362 117 132
1363 117 133
1364 117 134
1365 117 135
1366 117 137
1367 117 139
1368 117 140
1369 117 142
1370 117 144
1371 117 157
1372 117 159
1373 117 161
1374 117 162
1375 117 163
1376 117 169
1377 117 171
1378 117 184
1379 117 185
1380 117 186
1381 117 187
1382 117 190
1383 117 192
1384 117 219
1385 117 220
1386 117 221
1387 117 223
1388 117 227
1389 117 228
1390 117 230
1391 117 234
1392 117 235
1393 117 237
1394 117 238
1395 117 6
1396 117 65
1397 117 67
1398 117 82
1399 117 84
1400 117 85
1401 117 87
1402 117 89
1403 120 101
1404 120 103
1405 120 106
1406 120 111
1407 120 115
1408 120 119
1409 120 121
1410 120 124
1411 120 128
1412 120 131
1413 120 139
1414 120 142
1415 120 148
1416 120 151
1417 120 155
1418 120 157
1419 120 159
1420 120 164
1421 120 166
1422 120 169
1423 120 171
1424 120 176
1425 120 182
1426 120 192
1427 120 198
1428 120 206
1429 120 214
1430 120 22
1431 120 222
1432 120 226
1433 120 233
1434 120 243
1435 120 30
1436 120 38
1437 120 43
1438 120 51
1439 120 59
1440 120 65
1441 120 67
1442 120 73
1443 120 81
1444 120 83
1445 120 89
1446 120 92
1447 120 96
1448 120 98
1449 121 0
1450 122 0
1451 123 0
1452 123 161
1453 123 18
1454 123 194
1455 123 200
1456 123 208
1457 123 216
1458 123 219
1459 123 24
1460 123 32
1461 123 39
1462 123 45
1463 123 53
1464 123 61
1465 124 0
1466 124 109
1467 124 113
1468 124 117
1469 124 137
1470 124 140
1471 124 161
1472 124 18
1473 124 190
1474 124 194
1475 124 200
1476 124 208
1477 124 216
1478 124 219
1479 124 223
1480 124 230
1481 124 24
1482 124 32
1483 124 39
1484 124 45
1485 124 53
1486 124 61
1487 124 87
1488 125 0
1489 125 105
1490 125 109
1491 125 113
1492 125 117
1493 125 120
1494 125 123
1495 125 130
1496 125 137
1497 125 140
1498 125 156
1499 125 161
1500 125 168
1501 125 18
1502 125 190
1503 125 194
1504 125 200
1505 125 208
1506 125 216
1507 125 219
1508 125 223
1509 125 230
1510 125 24
1511 125 249
1512 125 32
1513 125 39
1514 125 45
1515 125 53
1516 125 61
1517 125 64
1518 125 82
1519 125 87
1520 126 0
1521 126 100
1522 126 105
1523 126 109
1524 126 113
1525 126 117
1526 126 120
1527 126 123
1528 126 130
1529 126 137
1530 126 140
1531 126 146
1532 126 149
1533 126 156
1534 126 161
1535 126 165
1536 126 168
1537 126 173
1538 126 18
1539 126 190
1540 126 194
1541 126 201
1542 126 209
1543 126 217
1544 126 219
1545 126 223
1546 126 230
1547 126 249
1548 126 25
1549 126 33
1550 126 39
1551 126 46
1552 126 54
1553 126 62
1554 126 64
1555 126 82
1556 126 87
1557 126 90
1558 126 97
1559 127 0
1560 127 125
1561 127 173
1562 127 18
1563 127 194
1564 127 223
1565 127 230
1566 127 240
1567 127 39
1568 127 69
1569 127 93
1570 128 0
1571 129 0
1572 130 101
1573 130 103
1574 130 106
1575 130 121
1576 130 124
1577 130 128
1578 130 131
1579 130 157
1580 130 159
1581 130 164
1582 130 166
1583 130 169
1584 130 171
1585 130 176
1586 130 182
1587 130 222
1588 130 226
1589 130 233
1590 130 243
1591 130 65
1592 130 67
1593 130 83
1594 130 96
1595 130 98
1596 132 133
1597 132 134
1598 132 135
1599 132 144
1600 132 228
1601 132 235
1602 132 238
1603 132 6
1604 132 85
1605 133 13
1606 133 175
1607 133 181
1608 133 184
1609 133 186
1610 133 187
1611 133 19
1612 133 195
1613 133 196
1614 133 198
1615 133 20
1616 133 200
1617 133 203
1618 133 204
1619 133 206
1620 133 208
1621 133 212
1622 133 214
1623 133 216
1624 133 22
1625 133 224
1626 133 225
1627 133 23
1628 133 231
1629 133 232
1630 133 27
1631 133 28
1632 133 30
1633 133 32
1634 133 36
1635 133 37
1636 133 40
1637 133 41
1638 133 43
1639 133 45
1640 133 48
1641 133 49
1642 133 51
1643 133 53
1644 133 57
1645 133 59
1646 133 61
1647 138 249
1648 139 0
1649 139 249
1650 140 0
1651 140 10
1652 140 12
1653 140 121
1654 140 122
1655 140 13
1656 140 132
1657 140 133
1658 140 135
1659 140 14
1660 140 147
1661 140 148
1662 140 149
1663 140 15
1664 140 150
1665 140 16
1666 140 174
1667 140 175
1668 140 179
1669 140 18
1670 140 180
1671 140 183
1672 140 184
1673 140 185
1674 140 190
1675 140 192
1676 140 21
1677 140 219
1678 140 223
1679 140 225
1680 140 226
1681 140 228
1682 140 23
1683 140 230
1684 140 231
1685 140 239
1686 140 241
1687 140 249
1688 140 25
1689 140 27
1690 140 30
1691 140 32
1692 140 35
1693 140 38
1694 140 40
1695 140 43
1696 140 45
1697 140 47
1698 140 49
1699 140 51
1700 140 52
1701 140 53
1702 140 54
1703 140 56
1704 140 58
1705 140 60
1706 140 65
1707 140 67
1708 140 71
1709 140 72
1710 140 76
1711 140 77
1712 140 81
1713 140 82
1714 140 86
1715 140 87
1716 140 92
1717 141 136
1718 141 177
1719 141 79
1720 143 12
1721 143 198
1722 143 206
1723 143 214
1724 143 22
1725 143 222
1726 143 225
1727 143 227
1728 143 230
1729 143 234
1730 143 26
1731 143 39
1732 143 44
1733 143 48
1734 143 60
1735 143 62
1736 143 7
1737 146 194
1738 146 200
1739 146 208
1740 146 216
1741 146 65
1742 146 68
1743 147 10
1744 147 166
1745 147 194
1746 147 20
1747 147 200
1748 147 208
1749 147 216
1750 147 219
1751 147 223
1752 147 228
1753 147 231
1754 147 37
1755 147 42
1756 147 58
1757 147 65
1758 148 10
1759 148 194
1760 148 20
1761 148 200
1762 148 208
1763 148 216
1764 148 219
1765 148 223
1766 148 226
1767 148 228
1768 148 231
1769 148 37
1770 148 42
1771 148 58
1772 148 66
1773 148 94
1774 149 10
1775 149 100
1776 149 166
1777 149 194
1778 149 20
1779 149 201
1780 149 209
1781 149 217
1782 149 219
1783 149 223
1784 149 226
1785 149 228
1786 149 231
1787 149 235
1788 149 37
1789 149 42
1790 149 5
1791 149 58
1792 149 61
1793 149 65
1794 150 194
1795 150 219
1796 150 231
1797 150 68
1798 153 222
1799 153 227
1800 153 234
1801 153 62
1802 153 67
1803 155 121
1804 155 14
1805 155 147
1806 155 149
1807 155 15
1808 155 16
1809 155 174
1810 155 18
1811 155 180
1812 155 183
1813 155 190
1814 155 192
1815 155 30
1816 155 32
1817 155 35
1818 155 52
1819 155 53
1820 155 54
1821 155 56
1822 155 76
1823 155 82
1824 155 92
1825 156 120
1826 156 131
1827 156 137
1828 156 150
1829 156 178
1830 156 184
1831 156 195
1832 156 196
1833 156 198
1834 156 200
1835 156 203
1836 156 204
1837 156 206
1838 156 208
1839 156 212
1840 156 214
1841 156 216
1842 156 220
1843 156 221
1844 156 232
1845 156 233
1846 156 80
1847 156 86
1848 163 101
1849 163 102
1850 163 105
1851 163 106
1852 163 107
1853 163 11
1854 163 112
1855 163 114
1856 163 117
1857 163 120
1858 163 121
1859 163 125
1860 163 126
1861 163 129
1862 163 13
1863 163 130
1864 163 131
1865 163 136
1866 163 138
1867 163 141
1868 163 142
1869 163 146
1870 163 147
1871 163 150
1872 163 151
1873 163 152
1874 163 157
1875 163 159
1876 163 164
1877 163 165
1878 163 169
1879 163 170
1880 163 173
1881 163 174
1882 163 175
1883 163 180
1884 163 182
1885 163 192
1886 163 194
1887 163 197
1888 163 199
1889 163 201
1890 163 202
1891 163 205
1892 163 207
1893 163 210
1894 163 224
1895 163 226
1896 163 228
1897 163 238
1898 163 240
1899 163 242
1900 163 25
1901 163 27
1902 163 30
1903 163 34
1904 163 36
1905 163 39
1906 163 40
1907 163 41
1908 163 44
1909 163 46
1910 163 49
1911 163 50
1912 163 54
1913 163 55
1914 163 58
1915 163 59
1916 163 60
1917 163 65
1918 163 67
1919 163 72
1920 163 73
1921 163 77
1922 163 78
1923 163 81
1924 163 82
1925 163 83
1926 163 88
1927 163 90
1928 163 93
1929 163 96
1930 163 97
1931 164 123
1932 164 144
1933 164 167
1934 164 52
1935 164 75
1936 164 99
1937 166 117
1938 166 162
1939 166 17
1940 166 187
1941 166 192
1942 166 194
1943 166 197
1944 166 199
1945 166 206
1946 166 21
1947 166 210
1948 166 214
1949 166 220
1950 166 226
1951 166 231
1952 166 235
1953 166 26
1954 166 30
1955 166 35
1956 166 44
1957 166 46
1958 166 70
1959 166 8
1960 166 93
1961 169 227
1962 170 184
1963 170 204
1964 170 211
1965 170 224
1966 170 227
1967 170 24
1968 170 33
1969 171 116
1970 171 184
1971 171 191
1972 171 196
1973 171 204
1974 171 211
1975 171 224
1976 171 227
1977 171 24
1978 171 33
1979 171 43
1980 171 92
1981 172 116
1982 172 15
1983 172 161
1984 172 184
1985 172 191
1986 172 196
1987 172 204
1988 172 211
1989 172 224
1990 172 227
1991 172 236
1992 172 24
1993 172 33
1994 172 43
1995 172 69
1996 172 92
1997 173 184
1998 173 211
1999 173 227
2000 173 232
2001 173 5
2002 176 117
2003 176 162
2004 176 187
2005 176 192
2006 176 194
2007 176 197
2008 176 199
2009 176 214
2010 176 220
2011 176 235
2012 176 44
2013 176 46
2014 176 70
2015 176 8
2016 176 93
2017 178 102
2018 178 105
2019 178 11
2020 178 112
2021 178 114
2022 178 120
2023 178 126
2024 178 129
2025 178 13
2026 178 136
2027 178 138
2028 178 141
2029 178 147
2030 178 150
2031 178 157
2032 178 159
2033 178 164
2034 178 170
2035 178 173
2036 178 180
2037 178 182
2038 178 202
2039 178 39
2040 178 49
2041 178 55
2042 178 58
2043 178 65
2044 178 67
2045 178 72
2046 178 78
2047 178 81
2048 178 88
2049 178 90
2050 178 96
2051 179 100
2052 179 106
2053 179 124
2054 179 130
2055 179 145
2056 179 151
2057 179 168
2058 179 174
2059 179 185
2060 179 186
2061 179 188
2062 179 189
2063 179 212
2064 179 214
2065 179 215
2066 179 216
2067 179 218
2068 179 220
2069 179 221
2070 179 222
2071 179 229
2072 179 230
2073 179 40
2074 179 53
2075 179 59
2076 179 76
2077 179 82
2078 186 100
2079 186 102
2080 186 105
2081 186 107
2082 186 109
2083 186 11
2084 186 113
2085 186 115
2086 186 117
2087 186 121
2088 186 123
2089 186 13
2090 186 130
2091 186 134
2092 186 139
2093 186 143
2094 186 144
2095 186 145
2096 186 146
2097 186 155
2098 186 157
2099 186 158
2100 186 16
2101 186 160
2102 186 161
2103 186 163
2104 186 167
2105 186 170
2106 186 174
2107 186 178
2108 186 18
2109 186 182
2110 186 184
2111 186 187
2112 186 188
2113 186 191
2114 186 193
2115 186 195
2116 186 198
2117 186 20
2118 186 200
2119 186 202
2120 186 204
2121 186 212
2122 186 214
2123 186 216
2124 186 218
2125 186 220
2126 186 222
2127 186 224
2128 186 226
2129 186 228
2130 186 230
2131 186 234
2132 186 235
2133 186 242
2134 186 25
2135 186 27
2136 186 47
2137 186 54
2138 186 58
2139 186 60
2140 186 68
2141 186 69
2142 186 71
2143 186 73
2144 186 90
2145 186 92
2146 186 93
2147 189 101
2148 189 106
2149 189 110
2150 189 115
2151 189 12
2152 189 120
2153 189 123
2154 189 127
2155 189 133
2156 189 137
2157 189 142
2158 189 151
2159 189 157
2160 189 16
2161 189 160
2162 189 163
2163 189 166
2164 189 168
2165 189 175
2166 189 179
2167 189 182
2168 189 184
2169 189 191
2170 189 193
2171 189 195
2172 189 199
2173 189 20
2174 189 203
2175 189 207
2176 189 209
2177 189 213
2178 189 216
2179 189 220
2180 189 223
2181 189 227
2182 189 23
2183 189 230
2184 189 233
2185 189 26
2186 189 33
2187 189 41
2188 189 60
2189 189 64
2190 189 73
2191 189 78
2192 189 8
2193 189 86
2194 189 92
2195 189 96
2196 192 138
2197 192 172
2198 192 29
2199 192 35
2200 192 43
2201 192 74
2202 192 80
2203 193 10
2204 193 104
2205 193 113
2206 193 117
2207 193 121
2208 193 130
2209 193 134
2210 193 138
2211 193 148
2212 193 155
2213 193 158
2214 193 161
2215 193 172
2216 193 175
2217 193 179
2218 193 18
2219 193 197
2220 193 214
2221 193 218
2222 193 221
2223 193 228
2224 193 24
2225 193 29
2226 193 35
2227 193 43
2228 193 58
2229 193 61
2230 193 71
2231 193 74
2232 193 80
2233 193 83
2234 193 90
2235 193 93
2236 193 99
2237 194 10
2238 194 104
2239 194 109
2240 194 113
2241 194 117
2242 194 121
2243 194 130
2244 194 134
2245 194 138
2246 194 148
2247 194 155
2248 194 158
2249 194 161
2250 194 167
2251 194 173
2252 194 177
2253 194 18
2254 194 181
2255 194 190
2256 194 197
2257 194 212
2258 194 214
2259 194 218
2260 194 221
2261 194 226
2262 194 228
2263 194 24
2264 194 29
2265 194 35
2266 194 43
2267 194 58
2268 194 61
2269 194 71
2270 194 74
2271 194 80
2272 194 83
2273 194 90
2274 194 93
2275 194 99
2276 195 10
2277 195 104
2278 195 109
2279 195 113
2280 195 117
2281 195 121
2282 195 130
2283 195 134
2284 195 138
2285 195 148
2286 195 155
2287 195 158
2288 195 161
2289 195 164
2290 195 167
2291 195 18
2292 195 181
2293 195 190
2294 195 197
2295 195 206
2296 195 21
2297 195 212
2298 195 214
2299 195 218
2300 195 221
2301 195 226
2302 195 228
2303 195 231
2304 195 24
2305 195 29
2306 195 36
2307 195 44
2308 195 58
2309 195 61
2310 195 71
2311 195 74
2312 195 81
2313 195 83
2314 195 90
2315 195 93
2316 195 99
2317 196 117
2318 196 124
2319 196 130
2320 196 134
2321 196 138
2322 196 148
2323 196 29
2324 196 5
2325 196 61
2326 196 74
2327 196 83
2328 196 93
2329 199 110
2330 199 120
2331 199 127
2332 199 133
2333 199 137
2334 199 151
2335 199 168
2336 199 174
2337 199 178
2338 199 182
2339 199 184
2340 199 191
2341 199 193
2342 199 195
2343 199 207
2344 199 209
2345 199 213
2346 199 227
2347 199 64
2348 199 8
2349 199 86
2350 199 96
2351 201 144
2352 201 145
2353 201 146
2354 201 170
2355 201 187
2356 201 188
2357 201 235
2358 201 47
2359 201 69
2360 202 118
2361 202 119
2362 202 131
2363 202 132
2364 202 135
2365 202 136
2366 202 140
2367 202 141
2368 202 149
2369 202 150
2370 202 152
2371 202 153
2372 202 242
2373 202 30
2374 202 31
2375 202 33
2376 202 34
2377 202 35
2378 202 38
2379 202 39
2380 202 41
2381 202 42
2382 202 43
2383 202 54
2384 202 62
2385 202 63
2386 202 65
2387 202 66
2388 202 75
2389 202 76
2390 202 78
2391 202 79
2392 202 80
2393 202 84
2394 202 85
2395 202 87
2396 202 88
2397 202 94
2398 202 95
2399 209 101
2400 209 103
2401 209 109
2402 209 111
2403 209 112
2404 209 114
2405 209 116
2406 209 117
2407 209 119
2408 209 12
2409 209 121
2410 209 122
2411 209 124
2412 209 126
2413 209 128
2414 209 129
2415 209 131
2416 209 133
2417 209 135
2418 209 137
2419 209 138
2420 209 140
2421 209 141
2422 209 143
2423 209 145
2424 209 146
2425 209 148
2426 209 150
2427 209 155
2428 209 158
2429 209 160
2430 209 162
2431 209 164
2432 209 166
2433 209 168
2434 209 170
2435 209 172
2436 209 174
2437 209 176
2438 209 177
2439 209 179
2440 209 180
2441 209 182
2442 209 184
2443 209 186
2444 209 188
2445 209 190
2446 209 192
2447 209 194
2448 209 196
2449 209 198
2450 209 201
2451 209 203
2452 209 205
2453 209 207
2454 209 209
2455 209 211
2456 209 213
2457 209 215
2458 209 217
2459 209 219
2460 209 221
2461 209 223
2462 209 225
2463 209 227
2464 209 240
2465 209 242
2466 209 56
2467 209 58
2468 209 6
2469 209 60
2470 209 62
2471 209 65
2472 209 67
2473 209 70
2474 209 72
2475 209 78
2476 209 80
2477 209 81
2478 209 83
2479 209 85
2480 209 87
2481 209 89
2482 209 91
2483 209 93
2484 209 95
2485 212 103
2486 212 106
2487 212 111
2488 212 113
2489 212 116
2490 212 118
2491 212 121
2492 212 123
2493 212 125
2494 212 128
2495 212 131
2496 212 133
2497 212 137
2498 212 140
2499 212 142
2500 212 145
2501 212 147
2502 212 150
2503 212 152
2504 212 159
2505 212 163
2506 212 167
2507 212 171
2508 212 176
2509 212 179
2510 212 182
2511 212 185
2512 212 189
2513 212 193
2514 212 197
2515 212 202
2516 212 206
2517 212 210
2518 212 214
2519 212 218
2520 212 222
2521 212 226
2522 212 231
2523 212 235
2524 212 30
2525 212 33
2526 212 35
2527 212 43
2528 212 51
2529 212 58
2530 212 61
2531 212 66
2532 212 71
2533 212 77
2534 212 80
2535 212 83
2536 212 91
2537 212 95
2538 212 99
2539 215 39
2540 215 45
2541 215 53
2542 216 101
2543 216 109
2544 216 114
2545 216 119
2546 216 126
2547 216 129
2548 216 135
2549 216 138
2550 216 143
2551 216 148
2552 216 157
2553 216 174
2554 216 177
2555 216 180
2556 216 183
2557 216 200
2558 216 39
2559 216 45
2560 216 53
2561 216 56
2562 216 59
2563 216 64
2564 216 69
2565 216 78
2566 216 81
2567 216 89
2568 216 93
2569 217 10
2570 217 101
2571 217 109
2572 217 112
2573 217 114
2574 217 117
2575 217 119
2576 217 122
2577 217 124
2578 217 126
2579 217 129
2580 217 132
2581 217 135
2582 217 138
2583 217 141
2584 217 143
2585 217 146
2586 217 148
2587 217 157
2588 217 174
2589 217 177
2590 217 180
2591 217 183
2592 217 200
2593 217 39
2594 217 45
2595 217 53
2596 217 56
2597 217 59
2598 217 64
2599 217 69
2600 217 78
2601 217 81
2602 217 89
2603 217 93
2604 218 10
2605 218 101
2606 218 104
2607 218 109
2608 218 112
2609 218 114
2610 218 117
2611 218 119
2612 218 122
2613 218 124
2614 218 126
2615 218 129
2616 218 132
2617 218 135
2618 218 138
2619 218 141
2620 218 143
2621 218 146
2622 218 148
2623 218 151
2624 218 157
2625 218 174
2626 218 177
2627 218 180
2628 218 183
2629 218 200
2630 218 229
2631 218 236
2632 218 29
2633 218 32
2634 218 39
2635 218 46
2636 218 54
2637 218 56
2638 218 59
2639 218 64
2640 218 69
2641 218 78
2642 218 81
2643 218 89
2644 218 93
2645 219 232
2646 219 39
2647 219 74
2648 219 96
2649 222 113
2650 222 118
2651 222 123
2652 222 125
2653 222 133
2654 222 142
2655 222 147
2656 222 152
2657 222 235
2658 222 30
2659 222 33
2660 222 35
2661 222 77
2662 222 99
2663 224 155
2664 224 6
2665 224 85
2666 224 87
2667 225 40
2668 225 41
2669 225 43
2670 225 44
2671 225 45
2672 225 48
2673 225 49
2674 225 51
2675 225 52
2676 225 53
2677 231 102
2678 231 104
2679 231 106
2680 231 109
2681 231 11
2682 231 111
2683 231 114
2684 231 116
2685 231 120
2686 231 122
2687 231 125
2688 231 127
2689 231 129
2690 231 133
2691 231 136
2692 231 139
2693 231 141
2694 231 148
2695 231 157
2696 231 159
2697 231 165
2698 231 167
2699 231 169
2700 231 171
2701 231 172
2702 231 174
2703 231 176
2704 231 178
2705 231 183
2706 231 19
2707 231 190
2708 231 192
2709 231 194
2710 231 197
2711 231 199
2712 231 202
2713 231 205
2714 231 207
2715 231 210
2716 231 212
2717 231 215
2718 231 217
2719 231 219
2720 231 222
2721 231 23
2722 231 24
2723 231 241
2724 231 243
2725 231 32
2726 231 35
2727 231 39
2728 231 42
2729 231 43
2730 231 47
2731 231 50
2732 231 51
2733 231 6
2734 231 61
2735 231 63
2736 231 66
2737 231 68
2738 231 70
2739 231 73
2740 231 75
2741 231 78
2742 231 80
2743 231 83
2744 231 85
2745 231 87
2746 231 93
2747 231 97
2748 231 99
2749 234 103
2750 234 107
2751 234 110
2752 234 115
2753 234 130
2754 234 134
2755 234 136
2756 234 146
2757 234 163
2758 234 166
2759 234 169
2760 234 175
2761 234 178
2762 234 182
2763 234 184
2764 234 187
2765 234 19
2766 234 195
2767 234 198
2768 234 203
2769 234 206
2770 234 220
2771 234 231
2772 234 235
2773 234 29
2774 234 32
2775 234 35
2776 234 39
2777 234 47
2778 234 55
2779 234 59
2780 234 67
2781 234 71
2782 234 74
2783 234 79
2784 234 84
2785 234 88
2786 234 90
2787 234 98
2788 238 101
2789 238 108
2790 238 113
2791 238 167
2792 238 176
2793 238 196
2794 238 204
2795 238 228
2796 238 231
2797 238 235
2798 238 65
2799 238 72
2800 238 77
2801 238 82
2802 238 96
2803 239 10
2804 239 101
2805 239 106
2806 239 108
2807 239 113
2808 239 129
2809 239 133
2810 239 135
2811 239 147
2812 239 165
2813 239 167
2814 239 174
2815 239 176
2816 239 18
2817 239 183
2818 239 194
2819 239 196
2820 239 202
2821 239 204
2822 239 219
2823 239 221
2824 239 229
2825 239 233
2826 239 31
2827 239 34
2828 239 38
2829 239 46
2830 239 65
2831 239 70
2832 239 72
2833 239 77
2834 239 82
2835 239 87
2836 239 96
2837 240 10
2838 240 101
2839 240 106
2840 240 108
2841 240 113
2842 240 129
2843 240 133
2844 240 135
2845 240 147
2846 240 161
2847 240 165
2848 240 167
2849 240 174
2850 240 176
2851 240 18
2852 240 183
2853 240 185
2854 240 194
2855 240 196
2856 240 202
2857 240 204
2858 240 219
2859 240 221
2860 240 237
2861 240 31
2862 240 34
2863 240 38
2864 240 46
2865 240 53
2866 240 65
2867 240 70
2868 240 72
2869 240 77
2870 240 82
2871 240 87
2872 240 89
2873 240 96
2874 241 143
2875 241 179
2876 241 26
2877 241 56
2878 244 107
2879 244 130
2880 244 134
2881 244 136
2882 244 146
2883 244 166
2884 244 175
2885 244 182
2886 244 184
2887 244 19
2888 244 195
2889 244 203
2890 244 220
2891 244 230
2892 244 234
2893 244 29
2894 244 32
2895 244 35
2896 244 39
2897 244 47
2898 244 59
2899 244 71
2900 244 88
2901 244 90
2902 245 11
2903 245 222
2904 246 120
2905 246 122
2906 246 125
2907 246 127
2908 246 139
2909 246 141
2910 246 157
2911 246 159
2912 246 172
2913 246 190
2914 246 192
2915 246 210
2916 246 212
2917 246 215
2918 246 217
2919 246 24
2920 246 43
2921 246 51
2922 246 6
2923 246 61
2924 246 63
2925 246 93
2926 251 101
2927 251 105
2928 251 109
2929 251 113
2930 251 117
2931 251 121
2932 251 123
2933 251 124
2934 251 125
2935 251 129
2936 251 13
2937 251 133
2938 251 137
2939 251 141
2940 251 145
2941 251 149
2942 251 153
2943 251 156
2944 251 157
2945 251 160
2946 251 161
2947 251 164
2948 251 165
2949 251 168
2950 251 17
2951 251 172
2952 251 176
2953 251 180
2954 251 184
2955 251 188
2956 251 19
2957 251 192
2958 251 196
2959 251 200
2960 251 204
2961 251 208
2962 251 21
2963 251 212
2964 251 216
2965 251 220
2966 251 224
2967 251 228
2968 251 232
2969 251 236
2970 251 240
2971 251 244
2972 251 25
2973 251 29
2974 251 33
2975 251 37
2976 251 41
2977 251 45
2978 251 49
2979 251 5
2980 251 53
2981 251 57
2982 251 61
2983 251 65
2984 251 69
2985 251 73
2986 251 75
2987 251 77
2988 251 81
2989 251 85
2990 251 89
2991 251 9
2992 251 93
2993 251 97
EOF
